Problem:    
Rows:       195
Columns:    69 (54 integer, 54 binary)
Non-zeros:  630
Status:     INTEGER OPTIMAL
Objective:  value = 61.027122 (MINimum)

   No.   Row name        Activity     Lower bound   Upper bound
------ ------------    ------------- ------------- -------------
     1 r.5                   561.027             0               
     2 r.6                  -438.973      -483.878               
     3 r.7                   61.0271             0               
     4 r.8                   21.1061      -473.265               
     5 r.9                   561.027             0               
     6 r.10                 -458.095      -487.223               
     7 r.11                  61.0271             0               
     8 r.12                 -2.62888      -457.715               
     9 r.13                  61.0271             0               
    10 r.14                 -424.501      -485.528               
    11 r.15                  561.027             0               
    12 r.16                 -447.238       -480.32               
    13 r.17                  561.027             0               
    14 r.18                 -482.873      -491.638               
    15 r.19                  61.0271             0               
    16 r.20                 -420.234      -465.316               
    17 r.21                  61.0271             0               
    18 r.22                   14.765      -486.319               
    19 r.23                  561.027             0               
    20 r.24                 -466.918      -488.024               
    21 r.25                  61.0271             0               
    22 r.26                  44.9048      -485.244               
    23 r.27                  561.027             0               
    24 r.28                 -438.973      -494.735               
    25 r.29                  61.0271             0               
    26 r.30                   14.765      -497.398               
    27 r.31                  561.027             0               
    28 r.32                 -485.235      -485.235               
    29 r.33                        1             1             = 
    30 r.34                        1             1             = 
    31 r.35                        1             1             = 
    32 r.36                        1             1             = 
    33 r.37                        1             1             = 
    34 r.38                        1             1             = 
    35 r.39                        1             1             = 
    36 r.40                  480.878       12.7774               
    37 r.41                 -483.878      -483.878               
    38 r.42                  476.265        42.285               
    39 r.43                 -473.265      -473.265               
    40 r.44                  14.4716       14.4716               
    41 r.45                 -14.4716      -483.878               
    42 r.46                   31.656         19.68               
    43 r.47                  -31.656      -473.265               
    44 r.48                    462.1       8.36243               
    45 r.49                   -468.1      -483.878               
    46 r.50                    52.66        34.684               
    47 r.51                   -46.66      -473.265               
    48 r.52                  453.738       13.6812               
    49 r.53                 -453.738      -483.878               
    50 r.54                   11.976        11.976               
    51 r.55                  -11.976      -473.265               
    52 r.56                  483.878       14.7561               
    53 r.57                 -483.878      -483.878               
    54 r.58                   39.921         5.265               
    55 r.59                  -39.921      -473.265               
    56 r.60                 -453.738      -480.878               
    57 r.61                  6.34112      -470.265               
    58 r.62                 -453.738      -480.878               
    59 r.63                  6.34112      -470.265               
    60 r.64                  16.1223       16.1223               
    61 r.65                 -16.1223      -487.223               
    62 r.66                   26.735        26.735               
    63 r.67                  -26.735      -457.715               
    64 r.68                  30.5939       14.4716               
    65 r.69                 -30.5939      -487.223               
    66 r.70                   58.391         19.68               
    67 r.71                  -58.391      -457.715               
    68 r.72                  478.223       8.36243               
    69 r.73                 -484.223      -487.223               
    70 r.74                   79.395        34.684               
    71 r.75                  -73.395      -457.715               
    72 r.76                   469.86       13.6812               
    73 r.77                  -469.86      -487.223               
    74 r.78                   38.711        11.976               
    75 r.79                  -38.711      -457.715               
    76 r.80                        0      -482.244               
    77 r.81                 -483.878      -491.735               
    78 r.82                  50.5337      -482.244               
    79 r.83                 -433.344      -491.735               
    80 r.84                  -469.86      -484.223               
    81 r.85                 -20.3939      -454.715               
    82 r.86                  -469.86      -484.223               
    83 r.87                 -20.3939      -454.715               
    84 r.88                  485.528       16.1223               
    85 r.89                 -485.528      -485.528               
    86 r.90                  468.344        26.735               
    87 r.91                 -468.344       -480.32               
    88 r.92                  466.406       12.7774               
    89 r.93                 -469.406      -485.528               
    90 r.94                  444.609        42.285               
    91 r.95                 -441.609       -480.32               
    92 r.96                 -453.629      -482.528               
    93 r.97                 -476.365       -477.32               
    94 r.98                   7.7326      -482.528               
    95 r.99                  -15.004       -477.32               
    96 r.100                 439.266       13.6812               
    97 r.101                -439.266      -485.528               
    98 r.102                  480.32        11.976               
    99 r.103                 -480.32       -480.32               
   100 r.104                 469.406      -482.244               
   101 r.105                -14.4716      -491.735               
   102 r.106                -7.85729      -482.244               
   103 r.107                -491.735      -491.735               
   104 r.108                -439.266      -482.528               
   105 r.109                -462.003       -477.32               
   106 r.110                -439.266      -482.528               
   107 r.111                -462.003       -477.32               
   108 r.112                 31.8997       16.1223               
   109 r.113                -31.8997      -491.638               
   110 r.114                  453.34        26.735               
   111 r.115                 -453.34      -465.316               
   112 r.116                 12.7774       12.7774               
   113 r.117                -15.7774      -491.638               
   114 r.118                 429.605        42.285               
   115 r.119                -426.605      -465.316               
   116 r.120                -453.629      -482.528               
   117 r.121                -476.365       -477.32               
   118 r.122                  7.7326      -482.528               
   119 r.123                 -15.004       -477.32               
   120 r.124                 485.638       13.6812               
   121 r.125                -485.638      -491.638               
   122 r.126                 465.316        11.976               
   123 r.127                -465.316      -465.316               
   124 r.128                 15.7774      -482.244               
   125 r.129                  -468.1      -491.735               
   126 r.130                 477.139      -482.244               
   127 r.131                  -6.739      -491.735               
   128 r.132                -485.638      -485.638               
   129 r.133                -446.999      -459.316               
   130 r.134                -485.638      -485.638               
   131 r.135                -446.999      -459.316               
   132 r.136                 46.2621       16.1223               
   133 r.137                -46.2621      -486.319               
   134 r.138                 488.024        26.735               
   135 r.139                -488.024      -488.024               
   136 r.140                 27.1398       12.7774               
   137 r.141                -30.1398      -486.319               
   138 r.142                 464.289        42.285               
   139 r.143                -461.289      -488.024               
   140 r.144                 60.7337       14.4716               
   141 r.145                -60.7337      -486.319               
   142 r.146                   19.68         19.68               
   143 r.147                  -19.68      -488.024               
   144 r.148                 8.36243       8.36243               
   145 r.149                -14.3624      -486.319               
   146 r.150                  40.684        34.684               
   147 r.151                 -34.684      -488.024               
   148 r.152                 30.1398      -482.244               
   149 r.153                -453.738      -491.735               
   150 r.154                 11.8227      -482.244               
   151 r.155                -472.055      -491.735               
   152 r.156                       0      -480.319               
   153 r.157                -481.683      -482.024               
   154 r.158                       0      -480.319               
   155 r.159                -481.683      -482.024               
   156 r.160                 16.1223       16.1223               
   157 r.161                -16.1223      -485.244               
   158 r.162                 460.079        26.735               
   159 r.163                -460.079      -494.735               
   160 r.164                       0      -482.244               
   161 r.165                -483.878      -491.735               
   162 r.166                 50.5337      -482.244               
   163 r.167                -433.344      -491.735               
   164 r.168                 469.406      -482.244               
   165 r.169                -14.4716      -491.735               
   166 r.170                -7.85729      -482.244               
   167 r.171                -491.735      -491.735               
   168 r.172                 15.7774      -482.244               
   169 r.173                  -468.1      -491.735               
   170 r.174                 477.139      -482.244               
   171 r.175                  -6.739      -491.735               
   172 r.176                 30.1398      -482.244               
   173 r.177                -453.738      -491.735               
   174 r.178                 11.8227      -482.244               
   175 r.179                -472.055      -491.735               
   176 r.180                -453.738      -480.878               
   177 r.181                 6.34112      -470.265               
   178 r.182                -453.738      -480.878               
   179 r.183                 6.34112      -470.265               
   180 r.184                 -469.86      -484.223               
   181 r.185                -20.3939      -454.715               
   182 r.186                 -469.86      -484.223               
   183 r.187                -20.3939      -454.715               
   184 r.188                -439.266      -482.528               
   185 r.189                -462.003       -477.32               
   186 r.190                -439.266      -482.528               
   187 r.191                -462.003       -477.32               
   188 r.192                -485.638      -485.638               
   189 r.193                -446.999      -459.316               
   190 r.194                -485.638      -485.638               
   191 r.195                -446.999      -459.316               
   192 r.196                       0      -480.319               
   193 r.197                -481.683      -482.024               
   194 r.198                       0      -480.319               
   195 r.199                -481.683      -482.024               

   No. Column name       Activity     Lower bound   Upper bound
------ ------------    ------------- ------------- -------------
     1 tt                    61.0271             0               
     2 s_1_1        *              1             0             1 
     3 t_1_1                       0             0               
     4 s_2_1        *              0             0             1 
     5 t_2_1                  39.921             0               
     6 s_1_2        *              1             0             1 
     7 t_1_2                 16.1223             0               
     8 s_1_6        *              0             0             1 
     9 s_2_2        *              0             0             1 
    10 t_2_2                  66.656             0               
    11 s_2_6        *              1             0             1 
    12 s_1_3        *              0             0             1 
    13 t_1_3                 485.528             0               
    14 s_2_3        *              1             0             1 
    15 t_2_3                   8.265             0               
    16 s_1_4        *              1             0             1 
    17 t_1_4                 31.8997             0               
    18 s_2_4        *              0             0             1 
    19 t_2_4                 493.261             0               
    20 s_1_5        *              0             0             1 
    21 t_1_5                 46.2621             0               
    22 s_2_5        *              1             0             1 
    23 t_2_5                  27.945             0               
    24 t_1_6                 16.1223             0               
    25 t_2_6                       0             0               
    26 s_1_7        *              0             0             1 
    27 t_1_7                 46.2621             0               
    28 s_2_7        *              1             0             1 
    29 t_2_7                 46.2621             0               
    30 u_1_1_2      *              1             0             1 
    31 u_2_1_2      *              1             0             1 
    32 u_1_1_3      *              1             0             1 
    33 u_2_1_3      *              0             0             1 
    34 u_1_1_4      *              1             0             1 
    35 u_2_1_4      *              1             0             1 
    36 u_1_1_5      *              1             0             1 
    37 u_2_1_5      *              0             0             1 
    38 u_1_1_6      *              1             0             1 
    39 u_2_1_6      *              0             0             1 
    40 u_1_2_1      *              0             0             1 
    41 u_2_2_1      *              0             0             1 
    42 u_1_2_3      *              1             0             1 
    43 u_2_2_3      *              0             0             1 
    44 u_1_2_4      *              1             0             1 
    45 u_2_2_4      *              1             0             1 
    46 u_1_2_5      *              1             0             1 
    47 u_2_2_5      *              0             0             1 
    48 u_1_3_1      *              0             0             1 
    49 u_2_3_1      *              1             0             1 
    50 u_1_3_2      *              0             0             1 
    51 u_2_3_2      *              1             0             1 
    52 u_1_3_5      *              0             0             1 
    53 u_2_3_5      *              1             0             1 
    54 u_1_4_1      *              0             0             1 
    55 u_2_4_1      *              0             0             1 
    56 u_1_4_2      *              0             0             1 
    57 u_2_4_2      *              0             0             1 
    58 u_1_4_5      *              1             0             1 
    59 u_2_4_5      *              0             0             1 
    60 u_1_5_1      *              0             0             1 
    61 u_2_5_1      *              1             0             1 
    62 u_1_5_2      *              0             0             1 
    63 u_2_5_2      *              1             0             1 
    64 u_1_5_3      *              1             0             1 
    65 u_2_5_3      *              0             0             1 
    66 u_1_5_4      *              0             0             1 
    67 u_2_5_4      *              1             0             1 
    68 u_1_6_1      *              0             0             1 
    69 u_2_6_1      *              1             0             1 

Integer feasibility conditions:

KKT.PE: max.abs.err = 1.14e-13 on row 14
        max.rel.err = 1.06e-16 on row 20
        High quality

KKT.PB: max.abs.err = 1.78e-15 on row 50
        max.rel.err = 1.37e-16 on row 50
        High quality

End of output
